unsat
(:max-memory                   18.44
 :memory                       18.13
 :nlsat-conflicts              10
 :nlsat-decisions              2
 :nlsat-irrational-assignments 1
 :nlsat-propagations           62
 :nlsat-stages                 10
 :num-allocs                   200830
 :rlimit-count                 110356
 :time                         0.12
 :total-time                   0.12)
